WARNING: for repeatability, setting FPU to use double precision
============================[ Problem Statistics ]=============================
|                                                                             |
|  Number of variables:            50                                         |
|  Number of clauses:             218                                         |
|  Parse time:                   0.00 s                                       |
|                                                                             |
============================[ Search Statistics ]==============================
| Conflicts |          ORIGINAL         |          LEARNT          | Progress |
|           |    Vars  Clauses Literals |    Limit  Clauses Lit/Cl |          |
===============================================================================
===============================================================================
restarts              : 1
conflicts             : 26             (18466 /sec)
decisions             : 33             (0.00 % random) (23438 /sec)
propagations          : 388            (275568 /sec)
conflict literals     : 105            (21.05 % deleted)
Memory used           : 20.00 MB
CPU time              : 0.001408 s

SATISFIABLE
